20
1 0 17
2 1 14
3 1 20
3 2 18
4 0 15
4 1 9
5 0 8
5 1 2
5 2 4
5 3 19
7 2 20
7 3 16
7 5 15
7 6 16
8 0 7
8 3 7
8 4 13
8 7 6
9 0 13
9 2 20
9 6 17
9 7 18
9 8 17
10 3 7
10 4 16
10 6 2
10 8 14
11 2 11
11 3 1
11 6 12
11 7 6
11 9 7
11 10 20
12 0 18
12 1 5
12 2 4
12 3 19
12 6 5
12 7 19
12 10 15
12 11 1
13 0 13
13 2 1
13 3 17
13 4 2
13 7 7
14 0 11
14 4 16
14 7 12
14 9 6
14 11 11
14 12 12
15 2 19
15 3 6
15 4 20
15 6 7
15 7 18
15 12 11
15 13 5
15 14 16
16 5 4
16 7 12
16 8 11
16 9 4
16 10 2
16 14 11
17 3 2
17 4 17
17 6 18
17 7 10
17 10 19
17 13 15
17 14 11
17 16 7
18 0 18
18 1 13
18 2 11
18 4 4
18 5 15
18 6 10
18 8 19
18 9 2
18 10 20
18 11 13
18 12 6
18 13 10
18 14 9
18 16 20
19 7 17
19 9 14
19 10 8
19 13 2
19 14 2
19 16 1
19 17 16
